-1.21 14.49
-1.21 13.81
-1.21 13.14
-1.21 12.46
-1.21 11.79
-1.21 11.11
-1.21 10.44
-1.21 9.76
-1.21 9.09
-1.21 8.41
-1.21 7.74
-0.54 7.74
-0.54 8.41
-0.54 9.09
-0.54 9.76
-0.54 10.44
-0.54 11.11
-0.54 11.79
-0.54 12.46
-0.54 13.14
-0.54 13.81
-0.54 14.49
-0.54 15.16
-0.54 15.84
0.14 15.84
0.14 15.16
0.14 14.49
0.14 13.81
0.14 13.14
0.14 12.46
0.14 11.79
0.14 11.11
0.14 10.44
0.14 9.76
0.14 9.09
0.14 8.41
0.14 7.74
0.81 7.74
0.81 8.41
0.81 9.09
0.81 9.76
0.81 10.44
0.81 11.11
0.81 11.79
0.81 12.46
0.81 13.14
0.81 13.81
0.81 14.49
0.81 15.16
0.81 15.84
0.81 16.51
0.14 16.51
-0.54 16.51
-1.21 16.51
-1.89 16.51
-2.56 16.51
-2.56 15.84
-2.56 15.16
-2.56 14.49
-2.56 13.81
-2.56 13.14
-1.89 13.14
-1.89 13.81
-1.89 14.49
-1.89 15.16
-1.89 15.84
-1.21 15.84
-1.21 15.16
